\ENCODING=ISO-8859-1
\Problem name: ilog.cplex

Minimize
 obj: 36.03 x0 + 36.83 x1 + 45.18 x2 + 38.04 x3 + 45.23 x4 + 41.6 x5 + 44.87 x6
      + 33.73 x7 + 35.68 x8 + 37.8 x9 + 48.64 x10 + 49.62 x11 + 38.02 x12
      + 33.99 x13 + 42.52 x14 + 30.57 x15 + 46.31 x16 + 41.2 x17 + 39.18 x18
      + 34.83 x19 + 125.2 x20 + 36.78 x21 + 14.75 x22 + 2.19 x23 + 12.13 x24
      + 19.73 x25 + 9.83 x26 + 12.46 x27 + 0.85 x28 + 3.92 x29 + 12.17 x30
      + 12.18 x31 + 133.56 x32 + 28.15 x33 + 1.72 x34 + 6.38 x35 + 1.33 x36
      + 6.64 x37 + 16.56 x38 + 9.11 x39 + 12.08 x40 + 14.96 x41 + 7.62 x42
      + 101.94 x43 + 24.82 x44 + 0.36 x45 + 18.52 x46 + 2.6 x47 + 10.98 x48
      + 16.22 x49 + 3.48 x50 + 12.46 x51 + 15.64 x52 + 16.25 x53 + 186.37 x54
      + 37.95 x55 + 4.15 x56 + 0.25 x57 + 16.29 x58 + 6.74 x59 + 10.27 x60
      + 13.41 x61 + 8.24 x62 + 16.42 x63 + 6.66 x64 + 130.44 x65 + 39.94 x66
      + 12.05 x67 + 16.12 x68 + 13.09 x69 + 1.44 x70 + 17.43 x71 + 17.24 x72
      + 9.95 x73 + 8.28 x74 + 106.87 x75 + 38.45 x76 + 14.73 x77 + 3.3 x78
      + 4.63 x79 + 10.72 x80 + 7.37 x81 + 7.35 x82 + 10.52 x83 + 10.8 x84
      + 10.18 x85 + 150.02 x86 + 32.91 x87 + 5.06 x88 + 18.81 x89 + 1.15 x90
      + 3.27 x91 + 19.9 x92 + 13.85 x93 + 9.8 x94 + 1.88 x95 + 19.04 x96
      + 129.7 x97 + 39.99 x98 + 0.1 x99 + 9.84 x100 + 4.93 x101 + 15.44 x102
      + 6.68 x103 + 8.74 x104 + 15.87 x105 + 0.48 x106 + 14.52 x107 + 2.23 x108
      + 115.84 x109 + 35.6 x110 + 13.14 x111 + 9.55 x112 + 1.17 x113 + 3.9 x114
      + 14.14 x115 + 1.4 x116 + 14.72 x117 + 12.3 x118 + 178.9 x119
      + 38.82 x120 + 15.4 x121 + 2.62 x122 + 9.94 x123 + 19.43 x124
      + 18.41 x125 + 12.58 x126 + 11.82 x127 + 8 x128 + 134.55 x129
      + 39.98 x130 + 8.76 x131 + 13.31 x132 + 5.16 x133 + 7.98 x134
      + 17.38 x135 + 5.09 x136 + 8.04 x137 + 12.16 x138 + 138.54 x139
      + 33.13 x140 + 12.86 x141 + 0.39 x142 + 10.33 x143 + 2.25 x144
      + 8.54 x145 + 13.54 x146 + 15.43 x147 + 6.78 x148 + 16.69 x149
      + 2.29 x150 + 16.37 x151 + 115.6 x152 + 25.95 x153 + 19.27 x154
      + 9.21 x155 + 19.53 x156 + 10.66 x157 + 12.23 x158 + 3.94 x159
      + 9.53 x160 + 14.02 x161 + 19.74 x162 + 1.57 x163 + 0.79 x164
      + 171.18 x165 + 32.59 x166 + 0.38 x167 + 2.81 x168 + 7.3 x169 + 10.1 x170
      + 11.96 x171 + 17.11 x172 + 10.2 x173 + 19.91 x174 + 4.4 x175
      + 178.22 x176 + 22.71 x177 + 18.51 x178 + 4.32 x179 + 8.08 x180
      + 8.98 x181 + 3.72 x182 + 5.61 x183 + 3.09 x184 + 2.07 x185 + 5.58 x186
      + 2.67 x187 + 16.84 x188 + 178.05 x189 + 22.47 x190 + 15.9 x191
      + 8.67 x192 + 19.39 x193 + 5.63 x194 + 4.46 x195 + 11.68 x196 + 3.32 x197
      + 2.91 x198 + 170.33 x199 + 31.35 x200 + 17.01 x201 + 14.84 x202
      + 10.95 x203 + 3.44 x204 + 0.63 x205 + 4.31 x206 + 19.95 x207 + 0.7 x208
      + 17.14 x209 + 126.26 x210 + 34.19 x211 + 3.56 x212 + 10.68 x213
      + 15.71 x214 + 13.92 x215 + 0.04 x216 + 17.7 x217 + 6.86 x218 + 2.68 x219
      + 17.73 x220 + 3.64 x221 + 128.17 x222 + 36.82 x223 + 13.37 x224
      + 5.26 x225 + 12.26 x226 + 16.03 x227 + 7.94 x228 + 19.69 x229
      + 13.59 x230 + 7.53 x231 + 189.06 x232 + 26.5 x233 + 17.88 x234
      + 14.56 x235 + 0.44 x236 + 13.95 x237 + 9.72 x238 + 16.03 x239
      + 14.57 x240 + 1.08 x241 + 6.9 x242 + 16.58 x243 + 6.7 x244 + 9.12 y0
      + 17.53 y1 + 20 y2 + 22.62 y3 + 24.1 y4 + 24.78 y5 + 25.13 y6 + 25.59 y7
      + 42.08 y8 + 132.15 y9 + 9.33 y10 + 10.18 y11 + 11.53 y12 + 18.99 y13
      + 19.71 y14 + 21.47 y15 + 23.47 y16 + 24 y17 + 24.36 y18 + 26 y19
      + 28.68 y20 + 153.62 y21 + 5.18 y22 + 9.49 y23 + 13.61 y24 + 18.29 y25
      + 19.78 y26 + 20 y27 + 20.58 y28 + 21.31 y29 + 26.84 y30 + 29.48 y31
      + 40.64 y32 + 114.42 y33 + 8.57 y34 + 8.88 y35 + 12.95 y36 + 16.74 y37
      + 17.99 y38 + 21.81 y39 + 22.67 y40 + 25.22 y41 + 25.25 y42 + 35.54 y43
      + 132.66 y44 + 8.77 y45 + 11.25 y46 + 11.53 y47 + 15.02 y48 + 15.96 y49
      + 21.24 y50 + 23.78 y51 + 27 y52 + 35.95 y53 + 120.59 y54 + 9.77 y55
      + 13.88 y56 + 16.52 y57 + 17.46 y58 + 18.91 y59 + 19.5 y60 + 20.63 y61
      + 21.05 y62 + 25.53 y63 + 29.89 y64 + 31.97 y65 + 194.59 y66 + 7.99 y67
      + 9.97 y68 + 11.43 y69 + 12.6 y70 + 13.61 y71 + 21.57 y72 + 24.91 y73
      + 26.55 y74 + 41.36 y75 + 152.37 y76 + 10.36 y77 + 15.81 y78 + 16.58 y79
      + 20.48 y80 + 21.65 y81 + 22.9 y82 + 23.28 y83 + 24.78 y84 + 26.33 y85
      + 36.87 y86 + 176.21 y87 + 3.19 y88 + 7.2 y89 + 12.49 y90 + 12.5 y91
      + 13.88 y92 + 19.29 y93 + 19.35 y94 + 21.17 y95 + 23.48 y96 + 26.4 y97
      + 35.01 y98 + 199.09 y99 + 7.66 y100 + 11.17 y101 + 12.64 y102
      + 13.2 y103 + 14.7 y104 + 17.97 y105 + 20.29 y106 + 21.59 y107
      + 22.93 y108 + 35.83 y109 + 36.51 y110 + 166.61 y111 + 5.32 y112
      + 9.91 y113 + 9.92 y114 + 10.42 y115 + 10.59 y116 + 11.05 y117
      + 13.92 y118 + 14.61 y119 + 17.21 y120 + 19.08 y121 + 23.76 y122
      + 31.43 y123 + 115.77 y124 + 7.91 y125 + 9.1 y126 + 9.79 y127 + 10.2 y128
      + 10.46 y129 + 15.47 y130 + 17.48 y131 + 18.51 y132 + 23.19 y133
      + 24.04 y134 + 24.72 y135 + 36.39 y136 + 197.25 y137 + 1.07 y138
      + 9.12 y139 + 11.59 y140 + 14.35 y141 + 15.94 y142 + 24.17 y143
      + 26.51 y144 + 42.08 y145 + 199.65 y146 + 8 y147 + 11.62 y148
      + 13.19 y149 + 14.72 y150 + 15.86 y151 + 21.2 y152 + 22.67 y153
      + 42.03 y154 + 149.31 y155 + 6.54 y156 + 13.89 y157 + 14.37 y158
      + 14.94 y159 + 17.06 y160 + 17.17 y161 + 19.84 y162 + 22.99 y163
      + 25.59 y164 + 25.76 y165 + 31.69 y166 + 43.72 y167 + 143.19 y168
      + 16.61 y169 + 16.66 y170 + 20.14 y171 + 22.21 y172 + 23.73 y173
      + 24.04 y174 + 24.41 y175 + 27.08 y176 + 29.34 y177 + 32.02 y178
      + 33.87 y179 + 134.36 y180 + 7.46 y181 + 9.3 y182 + 9.6 y183 + 12.08 y184
      + 17.61 y185 + 19.12 y186 + 20.19 y187 + 24.42 y188 + 24.8 y189
      + 24.82 y190 + 42.81 y191 + 149.2 y192 + 7.55 y193 + 15.8 y194
      + 18.66 y195 + 19.65 y196 + 20.33 y197 + 24.74 y198 + 28.54 y199
      + 48.36 y200 + 128.88 y201 + 8.13 y202 + 8.73 y203 + 8.74 y204
      + 10.7 y205 + 12.37 y206 + 15.65 y207 + 17.23 y208 + 23.06 y209
      + 29.58 y210 + 166.36 y211 + 6.89 y212 + 9.32 y213 + 10.45 y214
      + 17.3 y215 + 18.75 y216 + 18.81 y217 + 19.72 y218 + 23.85 y219
      + 24.71 y220 + 33.22 y221 + 165.63 y222
Subject To
 N1:       x20 + x21 + x22 + x23 + x24 + x25 + x26 + x27 + x28 + x29 + x30
           + x31  = 13
 N2:       x32 + x33 + x34 + x35 + x36 + x37 + x38 + x39 + x40 + x41 + x42
            = 16
 N3:       x43 + x44 + x45 + x46 + x47 + x48 + x49 + x50 + x51 + x52 + x53
            = 23
 N4:       x54 + x55 + x56 + x57 + x58 + x59 + x60 + x61 + x62 + x63 + x64
            = 13
 N5:       x65 + x66 + x67 + x68 + x69 + x70 + x71 + x72 + x73 + x74  = 15
 N6:       x75 + x76 + x77 + x78 + x79 + x80 + x81 + x82 + x83 + x84 + x85
            = 24
 N7:       x86 + x87 + x88 + x89 + x90 + x91 + x92 + x93 + x94 + x95 + x96
            = 10
 N8:       x97 + x98 + x99 + x100 + x101 + x102 + x103 + x104 + x105 + x106
           + x107 + x108  = 26
 N9:       x109 + x110 + x111 + x112 + x113 + x114 + x115 + x116 + x117 + x118
            = 25
 N10:      x119 + x120 + x121 + x122 + x123 + x124 + x125 + x126 + x127 + x128
            = 21
 N11:      x129 + x130 + x131 + x132 + x133 + x134 + x135 + x136 + x137 + x138
            = 15
 N12:      x139 + x140 + x141 + x142 + x143 + x144 + x145 + x146 + x147 + x148
           + x149 + x150 + x151  = 16
 N13:      x152 + x153 + x154 + x155 + x156 + x157 + x158 + x159 + x160 + x161
           + x162 + x163 + x164  = 10
 N14:      x165 + x166 + x167 + x168 + x169 + x170 + x171 + x172 + x173 + x174
           + x175  = 24
 N15:      x176 + x177 + x178 + x179 + x180 + x181 + x182 + x183 + x184 + x185
           + x186 + x187 + x188  = 18
 N16:      x189 + x190 + x191 + x192 + x193 + x194 + x195 + x196 + x197 + x198
            = 10
 N17:      x199 + x200 + x201 + x202 + x203 + x204 + x205 + x206 + x207 + x208
           + x209  = 25
 N18:      x210 + x211 + x212 + x213 + x214 + x215 + x216 + x217 + x218 + x219
           + x220 + x221  = 29
 N19:      x222 + x223 + x224 + x225 + x226 + x227 + x228 + x229 + x230 + x231
            = 13
 N20:      x232 + x233 + x234 + x235 + x236 + x237 + x238 + x239 + x240 + x241
           + x242 + x243 + x244  = 12
 N22:      x0 + x21 + x40 + x53 + x57 + x58 + x85 + x134 + x146 + x173 + x182
           + x193 + x241 - y0 - y1 - y2 - y3 - y4 - y5 - y6 - y7 - y8 - y9  = 0
 N23:      x1 + x33 + x92 + x101 + x125 + x174 + x197 + x208 + x221 - y10 - y11
           - y12 - y13 - y14 - y15 - y16 - y17 - y18 - y19 - y20 - y21  = 0
 N24:      x2 + x38 + x44 + x59 + x74 + x95 + x100 + x136 + x185 - y22 - y23
           - y24 - y25 - y26 - y27 - y28 - y29 - y30 - y31 - y32 - y33  = 0
 N25:      x3 + x48 + x55 + x68 + x72 + x78 + x79 + x82 + x115 + x126 + x127
           + x135 + x175 + x191 + x237 + x240 - y34 - y35 - y36 - y37 - y38
           - y39 - y40 - y41 - y42 - y43 - y44  = 0
 N26:      x4 + x24 + x63 + x66 + x93 + x123 + x132 + x142 + x156 + x184 + x187
           + x198 + x213 - y45 - y46 - y47 - y48 - y49 - y50 - y51 - y52 - y53
           - y54  = 0
 N27:      x5 + x47 + x50 + x52 + x71 + x76 + x90 + x107 + x180 + x183 + x194
           - y55 - y56 - y57 - y58 - y59 - y60 - y61 - y62 - y63 - y64 - y65
           - y66  = 0
 N28:      x6 + x37 + x73 + x87 + x114 + x181 + x225 + x230 + x235 + x238 - y67
           - y68 - y69 - y70 - y71 - y72 - y73 - y74 - y75 - y76  = 0
 N29:      x7 + x91 + x98 + x122 + x137 + x172 + x179 + x212 + x242 + x243
           - y77 - y78 - y79 - y80 - y81 - y82 - y83 - y84 - y85 - y86 - y87
            = 0
 N30:      x8 + x28 + x41 + x45 + x81 + x94 + x99 + x110 + x133 + x145 + x147
           + x149 + x162 + x164 + x167 + x195 + x236 - y88 - y89 - y90 - y91
           - y92 - y93 - y94 - y95 - y96 - y97 - y98 - y99  = 0
 N31:      x9 + x34 + x49 + x70 + x105 + x116 + x120 + x168 + x171 + x216
           + x220 - y100 - y101 - y102 - y103 - y104 - y105 - y106 - y107
           - y108 - y109 - y110 - y111  = 0
 N32:      x10 + x51 + x83 + x121 + x130 + x151 + x158 + x205 + x215 + x229
           - y112 - y113 - y114 - y115 - y116 - y117 - y118 - y119 - y120
           - y121 - y122 - y123 - y124  = 0
 N33:      x11 + x42 + x77 + x140 + x154 + x155 + x192 + x204 + x228 + x231
           + x234 - y125 - y126 - y127 - y128 - y129 - y130 - y131 - y132
           - y133 - y134 - y135 - y136 - y137  = 0
 N34:      x12 + x27 + x36 + x62 + x64 + x80 + x88 + x96 + x106 + x124 + x153
           + x218 + x224 - y138 - y139 - y140 - y141 - y142 - y143 - y144
           - y145 - y146  = 0
 N35:      x13 + x29 + x39 + x69 + x111 + x113 + x131 + x138 + x157 + x166
           + x201 + x206 + x219 - y147 - y148 - y149 - y150 - y151 - y152
           - y153 - y154 - y155  = 0
 N36:      x14 + x56 + x67 + x163 + x177 + x196 + x203 + x239 - y156 - y157
           - y158 - y159 - y160 - y161 - y162 - y163 - y164 - y165 - y166
           - y167 - y168  = 0
 N37:      x15 + x22 + x23 + x60 + x102 + x112 + x118 + x186 + x188 + x190
           + x227 - y169 - y170 - y171 - y172 - y173 - y174 - y175 - y176
           - y177 - y178 - y179 - y180  = 0
 N38:      x16 + x35 + x61 + x104 + x143 + x150 + x159 + x160 + x169 + x170
           + x200 + x214 - y181 - y182 - y183 - y184 - y185 - y186 - y187
           - y188 - y189 - y190 - y191 - y192  = 0
 N39:      x17 + x25 + x31 + x46 + x84 + x202 + x207 + x211 - y193 - y194
           - y195 - y196 - y197 - y198 - y199 - y200 - y201  = 0
 N40:      x18 + x108 + x117 + x128 + x141 + x144 + x223 + x244 - y202 - y203
           - y204 - y205 - y206 - y207 - y208 - y209 - y210 - y211  = 0
 N41:      x19 + x26 + x30 + x89 + x103 + x148 + x161 + x178 + x209 + x217
           + x226 + x233 - y212 - y213 - y214 - y215 - y216 - y217 - y218
           - y219 - y220 - y221 - y222  = 0
 Y0_1_0:   y0 <= 6
 Y0_1_1:   y1 <= 14
 Y0_1_2:   y2 <= 9
 Y0_1_3:   y3 <= 9
 Y0_1_4:   y4 <= 6
 Y0_1_5:   y5 <= 2
 Y0_1_6:   y6 <= 7
 Y0_1_7:   y7 <= 5
 Y0_1_8:   y8 <= 8
 Y0_1_9:   y9 <= 1000
 Y0_2_0:   y10 <= 8
 Y0_2_1:   y11 <= 17
 Y0_2_2:   y12 <= 9
 Y0_2_3:   y13 <= 6
 Y0_2_4:   y14 <= 6
 Y0_2_5:   y15 <= 8
 Y0_2_6:   y16 <= 7
 Y0_2_7:   y17 <= 7
 Y0_2_8:   y18 <= 6
 Y0_2_9:   y19 <= 5
 Y0_2_10:  y20 <= 8
 Y0_2_11:  y21 <= 1000
 Y0_3_0:   y22 <= 9
 Y0_3_1:   y23 <= 8
 Y0_3_2:   y24 <= 6
 Y0_3_3:   y25 <= 5
 Y0_3_4:   y26 <= 5
 Y0_3_5:   y27 <= 6
 Y0_3_6:   y28 <= 7
 Y0_3_7:   y29 <= 8
 Y0_3_8:   y30 <= 6
 Y0_3_9:   y31 <= 9
 Y0_3_10:  y32 <= 5
 Y0_3_11:  y33 <= 1000
 Y0_4_0:   y34 <= 6
 Y0_4_1:   y35 <= 5
 Y0_4_2:   y36 <= 8
 Y0_4_3:   y37 <= 6
 Y0_4_4:   y38 <= 8
 Y0_4_5:   y39 <= 9
 Y0_4_6:   y40 <= 5
 Y0_4_7:   y41 <= 8
 Y0_4_8:   y42 <= 7
 Y0_4_9:   y43 <= 7
 Y0_4_10:  y44 <= 1000
 Y0_5_0:   y45 <= 8
 Y0_5_1:   y46 <= 6
 Y0_5_2:   y47 <= 8
 Y0_5_3:   y48 <= 9
 Y0_5_4:   y49 <= 9
 Y0_5_5:   y50 <= 7
 Y0_5_6:   y51 <= 8
 Y0_5_7:   y52 <= 9
 Y0_5_8:   y53 <= 9
 Y0_5_9:   y54 <= 1000
 Y0_6_0:   y55 <= 7
 Y0_6_1:   y56 <= 9
 Y0_6_2:   y57 <= 14
 Y0_6_3:   y58 <= 6
 Y0_6_4:   y59 <= 9
 Y0_6_5:   y60 <= 8
 Y0_6_6:   y61 <= 7
 Y0_6_7:   y62 <= 7
 Y0_6_8:   y63 <= 7
 Y0_6_9:   y64 <= 6
 Y0_6_10:  y65 <= 5
 Y0_6_11:  y66 <= 1000
 Y0_7_0:   y67 <= 8
 Y0_7_1:   y68 <= 7
 Y0_7_2:   y69 <= 6
 Y0_7_3:   y70 <= 5
 Y0_7_4:   y71 <= 9
 Y0_7_5:   y72 <= 5
 Y0_7_6:   y73 <= 5
 Y0_7_7:   y74 <= 6
 Y0_7_8:   y75 <= 5
 Y0_7_9:   y76 <= 1000
 Y0_8_0:   y77 <= 7
 Y0_8_1:   y78 <= 7
 Y0_8_2:   y79 <= 6
 Y0_8_3:   y80 <= 14
 Y0_8_4:   y81 <= 7
 Y0_8_5:   y82 <= 5
 Y0_8_6:   y83 <= 9
 Y0_8_7:   y84 <= 7
 Y0_8_8:   y85 <= 7
 Y0_8_9:   y86 <= 6
 Y0_8_10:  y87 <= 1000
 Y0_9_0:   y88 <= 8
 Y0_9_1:   y89 <= 5
 Y0_9_2:   y90 <= 6
 Y0_9_3:   y91 <= 13
 Y0_9_4:   y92 <= 5
 Y0_9_5:   y93 <= 5
 Y0_9_6:   y94 <= 9
 Y0_9_7:   y95 <= 7
 Y0_9_8:   y96 <= 9
 Y0_9_9:   y97 <= 9
 Y0_9_10:  y98 <= 5
 Y0_9_11:  y99 <= 1000
 Y0_10_0:  y100 <= 9
 Y0_10_1:  y101 <= 5
 Y0_10_2:  y102 <= 10
 Y0_10_3:  y103 <= 9
 Y0_10_4:  y104 <= 7
 Y0_10_5:  y105 <= 7
 Y0_10_6:  y106 <= 7
 Y0_10_7:  y107 <= 5
 Y0_10_8:  y108 <= 9
 Y0_10_9:  y109 <= 6
 Y0_10_10: y110 <= 1
 Y0_10_11: y111 <= 1000
 Y0_11_0:  y112 <= 8
 Y0_11_1:  y113 <= 15
 Y0_11_2:  y114 <= 9
 Y0_11_3:  y115 <= 6
 Y0_11_4:  y116 <= 2
 Y0_11_5:  y117 <= 9
 Y0_11_6:  y118 <= 5
 Y0_11_7:  y119 <= 9
 Y0_11_8:  y120 <= 7
 Y0_11_9:  y121 <= 7
 Y0_11_10: y122 <= 7
 Y0_11_11: y123 <= 6
 Y0_11_12: y124 <= 1000
 Y0_12_0:  y125 <= 8
 Y0_12_1:  y126 <= 5
 Y0_12_2:  y127 <= 6
 Y0_12_3:  y128 <= 5
 Y0_12_4:  y129 <= 5
 Y0_12_5:  y130 <= 8
 Y0_12_6:  y131 <= 9
 Y0_12_7:  y132 <= 8
 Y0_12_8:  y133 <= 6
 Y0_12_9:  y134 <= 6
 Y0_12_10: y135 <= 1
 Y0_12_11: y136 <= 8
 Y0_12_12: y137 <= 1000
 Y0_13_0:  y138 <= 6
 Y0_13_1:  y139 <= 14
 Y0_13_2:  y140 <= 8
 Y0_13_3:  y141 <= 9
 Y0_13_4:  y142 <= 6
 Y0_13_5:  y143 <= 9
 Y0_13_6:  y144 <= 9
 Y0_13_7:  y145 <= 7
 Y0_13_8:  y146 <= 1000
 Y0_14_0:  y147 <= 9
 Y0_14_1:  y148 <= 7
 Y0_14_2:  y149 <= 15
 Y0_14_3:  y150 <= 9
 Y0_14_4:  y151 <= 5
 Y0_14_5:  y152 <= 6
 Y0_14_6:  y153 <= 5
 Y0_14_7:  y154 <= 8
 Y0_14_8:  y155 <= 1000
 Y0_15_0:  y156 <= 9
 Y0_15_1:  y157 <= 5
 Y0_15_2:  y158 <= 9
 Y0_15_3:  y159 <= 7
 Y0_15_4:  y160 <= 7
 Y0_15_5:  y161 <= 7
 Y0_15_6:  y162 <= 6
 Y0_15_7:  y163 <= 7
 Y0_15_8:  y164 <= 6
 Y0_15_9:  y165 <= 8
 Y0_15_10: y166 <= 7
 Y0_15_11: y167 <= 9
 Y0_15_12: y168 <= 1000
 Y0_16_0:  y169 <= 6
 Y0_16_1:  y170 <= 11
 Y0_16_2:  y171 <= 8
 Y0_16_3:  y172 <= 8
 Y0_16_4:  y173 <= 6
 Y0_16_5:  y174 <= 8
 Y0_16_6:  y175 <= 1
 Y0_16_7:  y176 <= 5
 Y0_16_8:  y177 <= 6
 Y0_16_9:  y178 <= 6
 Y0_16_10: y179 <= 9
 Y0_16_11: y180 <= 1000
 Y0_17_0:  y181 <= 6
 Y0_17_1:  y182 <= 7
 Y0_17_2:  y183 <= 8
 Y0_17_3:  y184 <= 18
 Y0_17_4:  y185 <= 6
 Y0_17_5:  y186 <= 5
 Y0_17_6:  y187 <= 5
 Y0_17_7:  y188 <= 7
 Y0_17_8:  y189 <= 8
 Y0_17_9:  y190 <= 5
 Y0_17_10: y191 <= 8
 Y0_17_11: y192 <= 1000
 Y0_18_0:  y193 <= 7
 Y0_18_1:  y194 <= 6
 Y0_18_2:  y195 <= 8
 Y0_18_3:  y196 <= 22
 Y0_18_4:  y197 <= 1
 Y0_18_5:  y198 <= 5
 Y0_18_6:  y199 <= 9
 Y0_18_7:  y200 <= 8
 Y0_18_8:  y201 <= 1000
 Y0_19_0:  y202 <= 9
 Y0_19_1:  y203 <= 6
 Y0_19_2:  y204 <= 5
 Y0_19_3:  y205 <= 8
 Y0_19_4:  y206 <= 7
 Y0_19_5:  y207 <= 6
 Y0_19_6:  y208 <= 9
 Y0_19_7:  y209 <= 5
 Y0_19_8:  y210 <= 5
 Y0_19_9:  y211 <= 1000
 Y0_20_0:  y212 <= 7
 Y0_20_1:  y213 <= 7
 Y0_20_2:  y214 <= 9
 Y0_20_3:  y215 <= 6
 Y0_20_4:  y216 <= 5
 Y0_20_5:  y217 <= 9
 Y0_20_6:  y218 <= 8
 Y0_20_7:  y219 <= 8
 Y0_20_8:  y220 <= 8
 Y0_20_9:  y221 <= 7
 Y0_20_10: y222 <= 1000
Bounds
 0 <= x0 <= 1000
 0 <= x1 <= 1000
 0 <= x2 <= 1000
 0 <= x3 <= 1000
 0 <= x4 <= 1000
 0 <= x5 <= 1000
 0 <= x6 <= 1000
 0 <= x7 <= 1000
 0 <= x8 <= 1000
 0 <= x9 <= 1000
 0 <= x10 <= 1000
 0 <= x11 <= 1000
 0 <= x12 <= 1000
 0 <= x13 <= 1000
 0 <= x14 <= 1000
 0 <= x15 <= 1000
 0 <= x16 <= 1000
 0 <= x17 <= 1000
 0 <= x18 <= 1000
 0 <= x19 <= 1000
 0 <= x20 <= 1000
 0 <= x21 <= 5
 0 <= x22 <= 8
 0 <= x23 <= 7
 0 <= x24 <= 7
 0 <= x25 <= 6
 0 <= x26 <= 6
 0 <= x27 <= 7
 0 <= x28 <= 8
 0 <= x29 <= 9
 0 <= x30 <= 9
 0 <= x31 <= 5
 0 <= x32 <= 1000
 0 <= x33 <= 6
 0 <= x34 <= 6
 0 <= x35 <= 8
 0 <= x36 <= 5
 0 <= x37 <= 6
 0 <= x38 <= 8
 0 <= x39 <= 5
 0 <= x40 <= 6
 0 <= x41 <= 9
 0 <= x42 <= 9
 0 <= x43 <= 1000
 0 <= x44 <= 9
 0 <= x45 <= 8
 0 <= x46 <= 6
 0 <= x47 <= 5
 0 <= x48 <= 5
 0 <= x49 <= 8
 0 <= x50 <= 7
 0 <= x51 <= 8
 0 <= x52 <= 9
 0 <= x53 <= 6
 0 <= x54 <= 1000
 0 <= x55 <= 8
 0 <= x56 <= 9
 0 <= x57 <= 8
 0 <= x58 <= 9
 0 <= x59 <= 7
 0 <= x60 <= 5
 0 <= x61 <= 6
 0 <= x62 <= 9
 0 <= x63 <= 6
 0 <= x64 <= 8
 0 <= x65 <= 1000
 0 <= x66 <= 6
 0 <= x67 <= 9
 0 <= x68 <= 9
 0 <= x69 <= 6
 0 <= x70 <= 7
 0 <= x71 <= 8
 0 <= x72 <= 6
 0 <= x73 <= 5
 0 <= x74 <= 6
 0 <= x75 <= 1000
 0 <= x76 <= 9
 0 <= x77 <= 9
 0 <= x78 <= 5
 0 <= x79 <= 5
 0 <= x80 <= 9
 0 <= x81 <= 5
 0 <= x82 <= 6
 0 <= x83 <= 7
 0 <= x84 <= 6
 0 <= x85 <= 5
 0 <= x86 <= 1000
 0 <= x87 <= 5
 0 <= x88 <= 9
 0 <= x89 <= 7
 0 <= x90 <= 6
 0 <= x91 <= 6
 0 <= x92 <= 9
 0 <= x93 <= 9
 0 <= x94 <= 6
 0 <= x95 <= 6
 0 <= x96 <= 8
 0 <= x97 <= 1000
 0 <= x98 <= 8
 0 <= x99 <= 5
 0 <= x100 <= 7
 0 <= x101 <= 7
 0 <= x102 <= 5
 0 <= x103 <= 7
 0 <= x104 <= 7
 0 <= x105 <= 9
 0 <= x106 <= 8
 0 <= x107 <= 8
 0 <= x108 <= 6
 0 <= x109 <= 1000
 0 <= x110 <= 7
 0 <= x111 <= 8
 0 <= x112 <= 7
 0 <= x113 <= 6
 0 <= x114 <= 7
 0 <= x115 <= 7
 0 <= x116 <= 7
 0 <= x117 <= 8
 0 <= x118 <= 7
 0 <= x119 <= 1000
 0 <= x120 <= 7
 0 <= x121 <= 8
 0 <= x122 <= 5
 0 <= x123 <= 7
 0 <= x124 <= 6
 0 <= x125 <= 8
 0 <= x126 <= 8
 0 <= x127 <= 7
 0 <= x128 <= 7
 0 <= x129 <= 1000
 0 <= x130 <= 8
 0 <= x131 <= 9
 0 <= x132 <= 6
 0 <= x133 <= 9
 0 <= x134 <= 8
 0 <= x135 <= 7
 0 <= x136 <= 5
 0 <= x137 <= 6
 0 <= x138 <= 8
 0 <= x139 <= 1000
 0 <= x140 <= 6
 0 <= x141 <= 9
 0 <= x142 <= 5
 0 <= x143 <= 6
 0 <= x144 <= 5
 0 <= x145 <= 7
 0 <= x146 <= 5
 0 <= x147 <= 9
 0 <= x148 <= 5
 0 <= x149 <= 5
 0 <= x150 <= 6
 0 <= x151 <= 8
 0 <= x152 <= 1000
 0 <= x153 <= 5
 0 <= x154 <= 8
 0 <= x155 <= 8
 0 <= x156 <= 8
 0 <= x157 <= 6
 0 <= x158 <= 9
 0 <= x159 <= 5
 0 <= x160 <= 5
 0 <= x161 <= 7
 0 <= x162 <= 9
 0 <= x163 <= 9
 0 <= x164 <= 6
 0 <= x165 <= 1000
 0 <= x166 <= 6
 0 <= x167 <= 9
 0 <= x168 <= 9
 0 <= x169 <= 9
 0 <= x170 <= 9
 0 <= x171 <= 7
 0 <= x172 <= 5
 0 <= x173 <= 5
 0 <= x174 <= 8
 0 <= x175 <= 6
 0 <= x176 <= 1000
 0 <= x177 <= 9
 0 <= x178 <= 5
 0 <= x179 <= 9
 0 <= x180 <= 5
 0 <= x181 <= 6
 0 <= x182 <= 9
 0 <= x183 <= 8
 0 <= x184 <= 5
 0 <= x185 <= 7
 0 <= x186 <= 5
 0 <= x187 <= 6
 0 <= x188 <= 5
 0 <= x189 <= 1000
 0 <= x190 <= 7
 0 <= x191 <= 6
 0 <= x192 <= 6
 0 <= x193 <= 6
 0 <= x194 <= 7
 0 <= x195 <= 8
 0 <= x196 <= 9
 0 <= x197 <= 5
 0 <= x198 <= 8
 0 <= x199 <= 1000
 0 <= x200 <= 5
 0 <= x201 <= 6
 0 <= x202 <= 6
 0 <= x203 <= 5
 0 <= x204 <= 5
 0 <= x205 <= 5
 0 <= x206 <= 8
 0 <= x207 <= 6
 0 <= x208 <= 5
 0 <= x209 <= 6
 0 <= x210 <= 1000
 0 <= x211 <= 7
 0 <= x212 <= 8
 0 <= x213 <= 7
 0 <= x214 <= 9
 0 <= x215 <= 7
 0 <= x216 <= 6
 0 <= x217 <= 5
 0 <= x218 <= 7
 0 <= x219 <= 6
 0 <= x220 <= 5
 0 <= x221 <= 7
 0 <= x222 <= 1000
 0 <= x223 <= 9
 0 <= x224 <= 8
 0 <= x225 <= 8
 0 <= x226 <= 5
 0 <= x227 <= 7
 0 <= x228 <= 6
 0 <= x229 <= 8
 0 <= x230 <= 7
 0 <= x231 <= 5
 0 <= x232 <= 1000
 0 <= x233 <= 7
 0 <= x234 <= 7
 0 <= x235 <= 5
 0 <= x236 <= 7
 0 <= x237 <= 6
 0 <= x238 <= 8
 0 <= x239 <= 6
 0 <= x240 <= 5
 0 <= x241 <= 6
 0 <= x242 <= 8
 0 <= x243 <= 9
 0 <= x244 <= 6
 0 <= y0 <= 1001
 0 <= y1 <= 1001
 0 <= y2 <= 1001
 0 <= y3 <= 1001
 0 <= y4 <= 1001
 0 <= y5 <= 1001
 0 <= y6 <= 1001
 0 <= y7 <= 1001
 0 <= y8 <= 1001
 0 <= y9 <= 1001
 0 <= y10 <= 1001
 0 <= y11 <= 1001
 0 <= y12 <= 1001
 0 <= y13 <= 1001
 0 <= y14 <= 1001
 0 <= y15 <= 1001
 0 <= y16 <= 1001
 0 <= y17 <= 1001
 0 <= y18 <= 1001
 0 <= y19 <= 1001
 0 <= y20 <= 1001
 0 <= y21 <= 1001
 0 <= y22 <= 1001
 0 <= y23 <= 1001
 0 <= y24 <= 1001
 0 <= y25 <= 1001
 0 <= y26 <= 1001
 0 <= y27 <= 1001
 0 <= y28 <= 1001
 0 <= y29 <= 1001
 0 <= y30 <= 1001
 0 <= y31 <= 1001
 0 <= y32 <= 1001
 0 <= y33 <= 1001
 0 <= y34 <= 1001
 0 <= y35 <= 1001
 0 <= y36 <= 1001
 0 <= y37 <= 1001
 0 <= y38 <= 1001
 0 <= y39 <= 1001
 0 <= y40 <= 1001
 0 <= y41 <= 1001
 0 <= y42 <= 1001
 0 <= y43 <= 1001
 0 <= y44 <= 1001
 0 <= y45 <= 1001
 0 <= y46 <= 1001
 0 <= y47 <= 1001
 0 <= y48 <= 1001
 0 <= y49 <= 1001
 0 <= y50 <= 1001
 0 <= y51 <= 1001
 0 <= y52 <= 1001
 0 <= y53 <= 1001
 0 <= y54 <= 1001
 0 <= y55 <= 1001
 0 <= y56 <= 1001
 0 <= y57 <= 1001
 0 <= y58 <= 1001
 0 <= y59 <= 1001
 0 <= y60 <= 1001
 0 <= y61 <= 1001
 0 <= y62 <= 1001
 0 <= y63 <= 1001
 0 <= y64 <= 1001
 0 <= y65 <= 1001
 0 <= y66 <= 1001
 0 <= y67 <= 1001
 0 <= y68 <= 1001
 0 <= y69 <= 1001
 0 <= y70 <= 1001
 0 <= y71 <= 1001
 0 <= y72 <= 1001
 0 <= y73 <= 1001
 0 <= y74 <= 1001
 0 <= y75 <= 1001
 0 <= y76 <= 1001
 0 <= y77 <= 1001
 0 <= y78 <= 1001
 0 <= y79 <= 1001
 0 <= y80 <= 1001
 0 <= y81 <= 1001
 0 <= y82 <= 1001
 0 <= y83 <= 1001
 0 <= y84 <= 1001
 0 <= y85 <= 1001
 0 <= y86 <= 1001
 0 <= y87 <= 1001
 0 <= y88 <= 1001
 0 <= y89 <= 1001
 0 <= y90 <= 1001
 0 <= y91 <= 1001
 0 <= y92 <= 1001
 0 <= y93 <= 1001
 0 <= y94 <= 1001
 0 <= y95 <= 1001
 0 <= y96 <= 1001
 0 <= y97 <= 1001
 0 <= y98 <= 1001
 0 <= y99 <= 1001
 0 <= y100 <= 1001
 0 <= y101 <= 1001
 0 <= y102 <= 1001
 0 <= y103 <= 1001
 0 <= y104 <= 1001
 0 <= y105 <= 1001
 0 <= y106 <= 1001
 0 <= y107 <= 1001
 0 <= y108 <= 1001
 0 <= y109 <= 1001
 0 <= y110 <= 1001
 0 <= y111 <= 1001
 0 <= y112 <= 1001
 0 <= y113 <= 1001
 0 <= y114 <= 1001
 0 <= y115 <= 1001
 0 <= y116 <= 1001
 0 <= y117 <= 1001
 0 <= y118 <= 1001
 0 <= y119 <= 1001
 0 <= y120 <= 1001
 0 <= y121 <= 1001
 0 <= y122 <= 1001
 0 <= y123 <= 1001
 0 <= y124 <= 1001
 0 <= y125 <= 1001
 0 <= y126 <= 1001
 0 <= y127 <= 1001
 0 <= y128 <= 1001
 0 <= y129 <= 1001
 0 <= y130 <= 1001
 0 <= y131 <= 1001
 0 <= y132 <= 1001
 0 <= y133 <= 1001
 0 <= y134 <= 1001
 0 <= y135 <= 1001
 0 <= y136 <= 1001
 0 <= y137 <= 1001
 0 <= y138 <= 1001
 0 <= y139 <= 1001
 0 <= y140 <= 1001
 0 <= y141 <= 1001
 0 <= y142 <= 1001
 0 <= y143 <= 1001
 0 <= y144 <= 1001
 0 <= y145 <= 1001
 0 <= y146 <= 1001
 0 <= y147 <= 1001
 0 <= y148 <= 1001
 0 <= y149 <= 1001
 0 <= y150 <= 1001
 0 <= y151 <= 1001
 0 <= y152 <= 1001
 0 <= y153 <= 1001
 0 <= y154 <= 1001
 0 <= y155 <= 1001
 0 <= y156 <= 1001
 0 <= y157 <= 1001
 0 <= y158 <= 1001
 0 <= y159 <= 1001
 0 <= y160 <= 1001
 0 <= y161 <= 1001
 0 <= y162 <= 1001
 0 <= y163 <= 1001
 0 <= y164 <= 1001
 0 <= y165 <= 1001
 0 <= y166 <= 1001
 0 <= y167 <= 1001
 0 <= y168 <= 1001
 0 <= y169 <= 1001
 0 <= y170 <= 1001
 0 <= y171 <= 1001
 0 <= y172 <= 1001
 0 <= y173 <= 1001
 0 <= y174 <= 1001
 0 <= y175 <= 1001
 0 <= y176 <= 1001
 0 <= y177 <= 1001
 0 <= y178 <= 1001
 0 <= y179 <= 1001
 0 <= y180 <= 1001
 0 <= y181 <= 1001
 0 <= y182 <= 1001
 0 <= y183 <= 1001
 0 <= y184 <= 1001
 0 <= y185 <= 1001
 0 <= y186 <= 1001
 0 <= y187 <= 1001
 0 <= y188 <= 1001
 0 <= y189 <= 1001
 0 <= y190 <= 1001
 0 <= y191 <= 1001
 0 <= y192 <= 1001
 0 <= y193 <= 1001
 0 <= y194 <= 1001
 0 <= y195 <= 1001
 0 <= y196 <= 1001
 0 <= y197 <= 1001
 0 <= y198 <= 1001
 0 <= y199 <= 1001
 0 <= y200 <= 1001
 0 <= y201 <= 1001
 0 <= y202 <= 1001
 0 <= y203 <= 1001
 0 <= y204 <= 1001
 0 <= y205 <= 1001
 0 <= y206 <= 1001
 0 <= y207 <= 1001
 0 <= y208 <= 1001
 0 <= y209 <= 1001
 0 <= y210 <= 1001
 0 <= y211 <= 1001
 0 <= y212 <= 1001
 0 <= y213 <= 1001
 0 <= y214 <= 1001
 0 <= y215 <= 1001
 0 <= y216 <= 1001
 0 <= y217 <= 1001
 0 <= y218 <= 1001
 0 <= y219 <= 1001
 0 <= y220 <= 1001
 0 <= y221 <= 1001
 0 <= y222 <= 1001
End
